4 
5  08 21 42 58 
6  05 13 20 28 38 46 53 
7  00 08 15 23 30 38 45 53 
8  00 08 15 23 30 38 45 53 
9  00 08 15 23 30 38 45 
10  00 15 30 45 
11  00 15 30 45 
12  00 15 30 45 
13  00 15 30 38 45 53 
14  00 08 15 23 30 38 45 53 
15  00 08 15 23 30 38 45 53 
16  00 08 15 23 30 38 45 53 
17  00 08 15 23 30 38 45 53 
18  00 08 15 23 30 38 45 53 
19  00 08 15 23 30 38 45 53 
20  00 08 15 23 38 53 
21  08 23 38 53 
22  08 23 38 53 
23  09 
0 
